p cnf 544 748
137 0
-341 0
-49 0
-50 0
-138 0
-342 0
-139 0
-343 0
-140 0
-344 0
-141 0
-345 0
-142 0
-346 0
-143 0
-347 0
-144 0
-348 0
-145 0
-349 0
-146 0
-350 0
-147 0
-351 0
-148 0
-352 0
-149 0
-353 0
-150 0
-354 0
-151 0
-355 0
-152 0
-356 0
-153 0
-357 0
-154 0
-358 0
-155 0
-359 0
-156 0
-360 0
-157 0
-361 0
-158 0
-362 0
-159 0
-363 0
-160 0
-364 0
-161 0
-365 0
-162 0
-366 0
-163 0
-367 0
-164 0
-368 0
-165 0
-369 0
-166 0
-370 0
-167 0
-371 0
-168 0
-372 0
-169 0
-373 0
-170 0
-374 0
-171 0
-375 0
-172 0
-376 0
-173 0
-377 0
-174 0
-378 0
-175 0
-379 0
-380 0
-381 0
-178 0
-382 0
-179 0
-383 0
-180 0
-384 0
-181 0
-385 0
-182 0
-386 0
-183 0
-387 0
-184 0
-388 0
-185 0
-389 0
-186 0
-390 0
-187 0
-391 0
-188 0
-392 0
-189 0
-393 0
-190 0
-394 0
-191 0
-395 0
-192 0
-396 0
-193 0
-397 0
-194 0
-398 0
-195 0
-399 0
-196 0
-400 0
-401 0
-402 0
-199 0
-403 0
-200 0
-404 0
-201 0
-405 0
-202 0
-406 0
-407 0
-408 0
-205 0
-409 0
-206 0
-410 0
-207 0
-411 0
-208 0
-412 0
-413 0
-414 0
-211 0
-415 0
-416 0
-417 0
-214 0
-418 0
-419 0
-420 0
-217 0
-421 0
-422 0
-423 0
-220 0
-424 0
-221 0
-425 0
-222 0
-426 0
-223 0
-427 0
-224 0
-428 0
-225 0
-429 0
-226 0
-430 0
-227 0
-431 0
-228 0
-432 0
-229 0
-433 0
-434 0
-435 0
-232 0
-436 0
-233 0
-437 0
-234 0
-438 0
-235 0
-439 0
-236 0
-440 0
-237 0
-441 0
-238 0
-442 0
-239 0
-443 0
-240 0
-444 0
-241 0
-445 0
-242 0
-446 0
-243 0
-447 0
-244 0
-448 0
-449 0
-450 0
-247 0
-451 0
-248 0
-452 0
-249 0
-453 0
-250 0
-454 0
-251 0
-455 0
-252 0
-456 0
-253 0
-457 0
-254 0
-458 0
-255 0
-459 0
-256 0
-460 0
-257 0
-461 0
-258 0
-462 0
-259 0
-463 0
-260 0
-464 0
-261 0
-465 0
-262 0
-466 0
-263 0
-467 0
-264 0
-468 0
-265 0
-469 0
-470 0
-471 0
-268 0
-472 0
-269 0
-473 0
-270 0
-474 0
-271 0
-475 0
-272 0
-476 0
-273 0
-477 0
-274 0
-478 0
-275 0
-479 0
-276 0
-480 0
-277 0
-481 0
-278 0
-482 0
-279 0
-483 0
-280 0
-484 0
-485 0
-486 0
-283 0
-487 0
-488 0
-489 0
-286 0
-490 0
-491 0
-492 0
-289 0
-493 0
-494 0
-495 0
-292 0
-496 0
-497 0
-498 0
-295 0
-499 0
-500 0
-501 0
-298 0
-502 0
-503 0
-504 0
-301 0
-505 0
-506 0
-507 0
-304 0
-508 0
-509 0
-510 0
-307 0
-511 0
-512 0
-513 0
-310 0
-514 0
-515 0
-516 0
-313 0
-517 0
-518 0
-519 0
-316 0
-520 0
317 0
-521 0
-522 0
-319 0
-523 0
320 0
-524 0
-525 0
-322 0
-526 0
323 0
-527 0
-528 0
-325 0
-529 0
-326 0
-530 0
-327 0
-531 0
-328 0
-532 0
-329 0
-533 0
-330 0
-534 0
-331 0
-535 0
-332 0
-536 0
-333 0
-537 0
-334 0
-538 0
-335 0
-539 0
-336 0
-540 0
-337 0
-541 0
-338 0
-542 0
-339 0
-543 0
-340 0
-544 0
-98 0
-97 0
-96 0
-95 0
-34 0
-33 0
25 -69 0
25 -70 0
-25 -176 0
-26 -176 0
25 176 0
176 -177 0
-25 -177 0
-26 -177 0
25 177 0
-69 -177 0
-70 -177 0
79 -131 0
79 -132 0
-79 -197 0
-80 -197 0
79 197 0
197 -198 0
-79 -198 0
-80 -198 0
79 198 0
-131 -198 0
-132 -198 0
23 -55 0
23 -56 0
-23 -203 0
-24 -203 0
23 203 0
203 -204 0
-23 -204 0
-24 -204 0
23 204 0
-55 -204 0
-56 -204 0
57 -65 0
57 -66 0
-57 -209 0
-58 -209 0
57 209 0
209 -210 0
-57 -210 0
-58 -210 0
57 210 0
-65 -210 0
-66 -210 0
57 -85 0
57 -86 0
-57 -212 0
-58 -212 0
57 212 0
212 -213 0
-57 -213 0
-58 -213 0
57 213 0
-85 -213 0
-86 -213 0
-15 57 0
-16 57 0
-57 -215 0
-58 -215 0
57 215 0
215 -216 0
-57 -216 0
-58 -216 0
57 216 0
-15 -216 0
-16 -216 0
-43 57 0
-44 57 0
-57 -218 0
-58 -218 0
57 218 0
218 -219 0
-57 -219 0
-58 -219 0
57 219 0
-43 -219 0
-44 -219 0
-51 99 0
-52 99 0
-99 -230 0
-100 -230 0
99 230 0
230 -231 0
-99 -231 0
-100 -231 0
99 231 0
-51 -231 0
-52 -231 0
27 -111 0
27 -112 0
-27 -245 0
-28 -245 0
27 245 0
245 -246 0
-27 -246 0
-28 -246 0
27 246 0
-111 -246 0
-112 -246 0
17 -127 0
17 -128 0
-17 -266 0
-18 -266 0
17 266 0
266 -267 0
-17 -267 0
-18 -267 0
17 267 0
-127 -267 0
-128 -267 0
13 -31 0
13 -32 0
-13 -281 0
-14 -281 0
13 281 0
281 -282 0
-13 -282 0
-14 -282 0
13 282 0
-31 -282 0
-32 -282 0
31 -61 0
31 -62 0
-31 -284 0
-32 -284 0
31 284 0
284 -285 0
-31 -285 0
-32 -285 0
31 285 0
-61 -285 0
-62 -285 0
31 -39 0
31 -40 0
-31 -287 0
-32 -287 0
31 287 0
287 -288 0
-31 -288 0
-32 -288 0
31 288 0
-39 -288 0
-40 -288 0
13 -101 0
13 -102 0
-13 -290 0
-14 -290 0
13 290 0
290 -291 0
-13 -291 0
-14 -291 0
13 291 0
-101 -291 0
-102 -291 0
13 -119 0
13 -120 0
-13 -293 0
-14 -293 0
13 293 0
293 -294 0
-13 -294 0
-14 -294 0
13 294 0
-119 -294 0
-120 -294 0
-107 119 0
-108 119 0
-119 -296 0
-120 -296 0
119 296 0
296 -297 0
-119 -297 0
-120 -297 0
119 297 0
-107 -297 0
-108 -297 0
-21 119 0
-22 119 0
-119 -299 0
-120 -299 0
119 299 0
299 -300 0
-119 -300 0
-120 -300 0
119 300 0
-21 -300 0
-22 -300 0
-11 119 0
-12 119 0
-119 -302 0
-120 -302 0
119 302 0
302 -303 0
-119 -303 0
-120 -303 0
119 303 0
-11 -303 0
-12 -303 0
11 -81 0
11 -82 0
-11 -305 0
-12 -305 0
11 305 0
305 -306 0
-11 -306 0
-12 -306 0
11 306 0
-81 -306 0
-82 -306 0
-63 81 0
-64 81 0
-81 -308 0
-82 -308 0
81 308 0
308 -309 0
-81 -309 0
-82 -309 0
81 309 0
-63 -309 0
-64 -309 0
13 -75 0
13 -76 0
-13 -311 0
-14 -311 0
13 311 0
311 -312 0
-13 -312 0
-14 -312 0
13 312 0
-75 -312 0
-76 -312 0
13 -77 0
13 -78 0
-13 -314 0
-14 -314 0
13 314 0
314 -315 0
-13 -315 0
-14 -315 0
13 315 0
-77 -315 0
-78 -315 0
-13 -318 0
-14 -318 0
13 318 0
-13 -321 0
-14 -321 0
13 321 0
-13 -324 0
-14 -324 0
13 324 0
-45 46 0
-29 30 0
-7 8 0
-35 36 0
-103 104 0
-9 10 0
-115 116 0
-117 118 0
-125 126 0
-67 68 0
-47 48 0
-25 26 0
-69 70 0
-41 42 0
-1 2 0
-105 106 0
-59 60 0
-123 124 0
-79 80 0
-131 132 0
-23 24 0
-55 56 0
-57 58 0
-65 66 0
-85 86 0
-15 16 0
-43 44 0
-129 130 0
-73 74 0
-99 100 0
-51 52 0
-37 38 0
-5 6 0
-89 90 0
-27 28 0
-111 112 0
-121 122 0
-3 4 0
-71 72 0
-93 94 0
-87 88 0
-17 18 0
-127 128 0
-109 110 0
-83 84 0
-135 136 0
-13 14 0
-31 32 0
-61 62 0
-39 40 0
-101 102 0
-119 120 0
-107 108 0
-21 22 0
-11 12 0
-81 82 0
-63 64 0
-75 76 0
-77 78 0
-19 20 0
-133 134 0
-53 54 0
-91 92 0
-113 114 0
1 -2 0
3 -4 0
5 -6 0
7 -8 0
9 -10 0
11 -12 0
13 -14 0
15 -16 0
17 -18 0
19 -20 0
21 -22 0
23 -24 0
25 -26 0
27 -28 0
29 -30 0
31 -32 0
35 -36 0
37 -38 0
39 -40 0
41 -42 0
43 -44 0
45 -46 0
47 -48 0
51 -52 0
53 -54 0
55 -56 0
57 -58 0
59 -60 0
61 -62 0
63 -64 0
65 -66 0
67 -68 0
69 -70 0
71 -72 0
73 -74 0
75 -76 0
77 -78 0
79 -80 0
81 -82 0
83 -84 0
85 -86 0
87 -88 0
89 -90 0
91 -92 0
93 -94 0
99 -100 0
101 -102 0
103 -104 0
105 -106 0
107 -108 0
109 -110 0
111 -112 0
113 -114 0
115 -116 0
117 -118 0
119 -120 0
121 -122 0
123 -124 0
125 -126 0
127 -128 0
129 -130 0
131 -132 0
133 -134 0
135 -136 0
